c File: data_files/evolved_graphs/g5151.col
c
c Auto generated graph
c
p edge 100 99
e 1 61
e 1 62
e 1 71
e 2 45
e 3 6
e 3 30
e 3 55
e 3 85
e 4 53
e 4 64
e 4 85
e 4 91
e 5 58
e 5 59
e 5 70
e 5 86
e 6 81
e 6 82
e 6 85
e 7 81
e 7 82
e 7 83
e 7 94
e 8 46
e 8 84
e 9 14
e 9 53
e 10 40
e 10 99
e 10 100
e 11 44
e 11 99
e 12 44
e 12 63
e 13 39
e 13 41
e 14 16
e 14 28
e 15 25
e 15 27
e 15 34
e 16 42
e 17 29
e 17 74
e 18 39
e 18 50
e 19 21
e 19 97
e 20 72
e 20 82
e 20 100
e 21 68
e 22 41
e 22 52
e 23 61
e 23 76
e 24 26
e 24 41
e 24 96
e 25 29
e 26 28
e 26 83
e 27 59
e 27 60
e 30 54
e 31 67
e 32 36
e 33 37
e 33 40
e 34 50
e 35 46
e 35 62
e 36 48
e 36 52
e 37 48
e 38 43
e 43 72
e 46 93
e 47 54
e 47 93
e 49 51
e 51 61
e 54 64
e 55 93
e 57 58
e 57 84
e 59 68
e 64 88
e 66 97
e 70 78
e 71 86
e 73 98
e 74 96
e 77 81
e 79 95
e 87 89
e 88 94
e 90 92
e 91 96
